c description: Graph pigeonhole principle formula on fast_gnp_random_graph(20,10,0.5)
c generator: CNFgen (0.9.0)
c copyright: (C) 2012-2020 Massimo Lauria <massimo.lauria@uniroma1.it>
c url: https://massimolauria.net/cnfgen
c
p cnf 96 458
1 2 3 4 5 0
6 7 8 9 10 11 0
12 13 14 15 0
16 17 18 19 20 0
21 22 23 24 25 0
26 27 28 0
29 30 31 32 33 0
34 35 36 0
37 38 39 40 41 42 0
43 44 45 46 47 48 49 0
50 51 52 53 54 0
55 56 57 58 59 60 61 0
62 63 64 65 66 0
67 68 69 0
70 71 72 73 0
74 75 76 77 78 0
79 80 81 82 83 84 0
85 86 87 88 0
89 90 91 0
92 93 94 95 96 0
-6 -16 0
-6 -21 0
-6 -34 0
-6 -37 0
-6 -50 0
-6 -55 0
-6 -67 0
-6 -70 0
-6 -79 0
-6 -89 0
-6 -92 0
-16 -21 0
-16 -34 0
-16 -37 0
-16 -50 0
-16 -55 0
-16 -67 0
-16 -70 0
-16 -79 0
-16 -89 0
-16 -92 0
-21 -34 0
-21 -37 0
-21 -50 0
-21 -55 0
-21 -67 0
-21 -70 0
-21 -79 0
-21 -89 0
-21 -92 0
-34 -37 0
-34 -50 0
-34 -55 0
-34 -67 0
-34 -70 0
-34 -79 0
-34 -89 0
-34 -92 0
-37 -50 0
-37 -55 0
-37 -67 0
-37 -70 0
-37 -79 0
-37 -89 0
-37 -92 0
-50 -55 0
-50 -67 0
-50 -70 0
-50 -79 0
-50 -89 0
-50 -92 0
-55 -67 0
-55 -70 0
-55 -79 0
-55 -89 0
-55 -92 0
-67 -70 0
-67 -79 0
-67 -89 0
-67 -92 0
-70 -79 0
-70 -89 0
-70 -92 0
-79 -89 0
-79 -92 0
-89 -92 0
-29 -38 0
-29 -43 0
-29 -51 0
-29 -74 0
-29 -85 0
-38 -43 0
-38 -51 0
-38 -74 0
-38 -85 0
-43 -51 0
-43 -74 0
-43 -85 0
-51 -74 0
-51 -85 0
-74 -85 0
-1 -12 0
-1 -39 0
-1 -56 0
-1 -75 0
-1 -93 0
-12 -39 0
-12 -56 0
-12 -75 0
-12 -93 0
-39 -56 0
-39 -75 0
-39 -93 0
-56 -75 0
-56 -93 0
-75 -93 0
-2 -7 0
-2 -13 0
-2 -26 0
-2 -30 0
-2 -44 0
-2 -62 0
-2 -68 0
-2 -71 0
-2 -80 0
-7 -13 0
-7 -26 0
-7 -30 0
-7 -44 0
-7 -62 0
-7 -68 0
-7 -71 0
-7 -80 0
-13 -26 0
-13 -30 0
-13 -44 0
-13 -62 0
-13 -68 0
-13 -71 0
-13 -80 0
-26 -30 0
-26 -44 0
-26 -62 0
-26 -68 0
-26 -71 0
-26 -80 0
-30 -44 0
-30 -62 0
-30 -68 0
-30 -71 0
-30 -80 0
-44 -62 0
-44 -68 0
-44 -71 0
-44 -80 0
-62 -68 0
-62 -71 0
-62 -80 0
-68 -71 0
-68 -80 0
-71 -80 0
-3 -17 0
-3 -22 0
-3 -27 0
-3 -40 0
-3 -45 0
-3 -52 0
-3 -63 0
-3 -76 0
-3 -81 0
-3 -86 0
-17 -22 0
-17 -27 0
-17 -40 0
-17 -45 0
-17 -52 0
-17 -63 0
-17 -76 0
-17 -81 0
-17 -86 0
-22 -27 0
-22 -40 0
-22 -45 0
-22 -52 0
-22 -63 0
-22 -76 0
-22 -81 0
-22 -86 0
-27 -40 0
-27 -45 0
-27 -52 0
-27 -63 0
-27 -76 0
-27 -81 0
-27 -86 0
-40 -45 0
-40 -52 0
-40 -63 0
-40 -76 0
-40 -81 0
-40 -86 0
-45 -52 0
-45 -63 0
-45 -76 0
-45 -81 0
-45 -86 0
-52 -63 0
-52 -76 0
-52 -81 0
-52 -86 0
-63 -76 0
-63 -81 0
-63 -86 0
-76 -81 0
-76 -86 0
-81 -86 0
-4 -8 0
-4 -18 0
-4 -23 0
-4 -28 0
-4 -46 0
-4 -57 0
-4 -77 0
-4 -82 0
-4 -87 0
-4 -94 0
-8 -18 0
-8 -23 0
-8 -28 0
-8 -46 0
-8 -57 0
-8 -77 0
-8 -82 0
-8 -87 0
-8 -94 0
-18 -23 0
-18 -28 0
-18 -46 0
-18 -57 0
-18 -77 0
-18 -82 0
-18 -87 0
-18 -94 0
-23 -28 0
-23 -46 0
-23 -57 0
-23 -77 0
-23 -82 0
-23 -87 0
-23 -94 0
-28 -46 0
-28 -57 0
-28 -77 0
-28 -82 0
-28 -87 0
-28 -94 0
-46 -57 0
-46 -77 0
-46 -82 0
-46 -87 0
-46 -94 0
-57 -77 0
-57 -82 0
-57 -87 0
-57 -94 0
-77 -82 0
-77 -87 0
-77 -94 0
-82 -87 0
-82 -94 0
-87 -94 0
-9 -14 0
-9 -19 0
-9 -24 0
-9 -35 0
-9 -53 0
-9 -58 0
-9 -83 0
-9 -88 0
-9 -90 0
-14 -19 0
-14 -24 0
-14 -35 0
-14 -53 0
-14 -58 0
-14 -83 0
-14 -88 0
-14 -90 0
-19 -24 0
-19 -35 0
-19 -53 0
-19 -58 0
-19 -83 0
-19 -88 0
-19 -90 0
-24 -35 0
-24 -53 0
-24 -58 0
-24 -83 0
-24 -88 0
-24 -90 0
-35 -53 0
-35 -58 0
-35 -83 0
-35 -88 0
-35 -90 0
-53 -58 0
-53 -83 0
-53 -88 0
-53 -90 0
-58 -83 0
-58 -88 0
-58 -90 0
-83 -88 0
-83 -90 0
-88 -90 0
-25 -31 0
-25 -47 0
-25 -54 0
-25 -59 0
-25 -64 0
-25 -69 0
-25 -72 0
-25 -95 0
-31 -47 0
-31 -54 0
-31 -59 0
-31 -64 0
-31 -69 0
-31 -72 0
-31 -95 0
-47 -54 0
-47 -59 0
-47 -64 0
-47 -69 0
-47 -72 0
-47 -95 0
-54 -59 0
-54 -64 0
-54 -69 0
-54 -72 0
-54 -95 0
-59 -64 0
-59 -69 0
-59 -72 0
-59 -95 0
-64 -69 0
-64 -72 0
-64 -95 0
-69 -72 0
-69 -95 0
-72 -95 0
-5 -10 0
-5 -32 0
-5 -41 0
-5 -48 0
-5 -60 0
-5 -65 0
-5 -73 0
-10 -32 0
-10 -41 0
-10 -48 0
-10 -60 0
-10 -65 0
-10 -73 0
-32 -41 0
-32 -48 0
-32 -60 0
-32 -65 0
-32 -73 0
-41 -48 0
-41 -60 0
-41 -65 0
-41 -73 0
-48 -60 0
-48 -65 0
-48 -73 0
-60 -65 0
-60 -73 0
-65 -73 0
-11 -15 0
-11 -20 0
-11 -33 0
-11 -36 0
-11 -42 0
-11 -49 0
-11 -61 0
-11 -66 0
-11 -78 0
-11 -84 0
-11 -91 0
-11 -96 0
-15 -20 0
-15 -33 0
-15 -36 0
-15 -42 0
-15 -49 0
-15 -61 0
-15 -66 0
-15 -78 0
-15 -84 0
-15 -91 0
-15 -96 0
-20 -33 0
-20 -36 0
-20 -42 0
-20 -49 0
-20 -61 0
-20 -66 0
-20 -78 0
-20 -84 0
-20 -91 0
-20 -96 0
-33 -36 0
-33 -42 0
-33 -49 0
-33 -61 0
-33 -66 0
-33 -78 0
-33 -84 0
-33 -91 0
-33 -96 0
-36 -42 0
-36 -49 0
-36 -61 0
-36 -66 0
-36 -78 0
-36 -84 0
-36 -91 0
-36 -96 0
-42 -49 0
-42 -61 0
-42 -66 0
-42 -78 0
-42 -84 0
-42 -91 0
-42 -96 0
-49 -61 0
-49 -66 0
-49 -78 0
-49 -84 0
-49 -91 0
-49 -96 0
-61 -66 0
-61 -78 0
-61 -84 0
-61 -91 0
-61 -96 0
-66 -78 0
-66 -84 0
-66 -91 0
-66 -96 0
-78 -84 0
-78 -91 0
-78 -96 0
-84 -91 0
-84 -96 0
-91 -96 0